decision_x1=[0,7];
decision_x2=[0,7];
decision_x3=[0,7];
decision_x4=[0,7];
decision_x5=[0,7];
decision_x6=[0,7];
decision_x7=[0,7];
decision_x8=[0,7];
decision_x9=[0,7];
decision_x10=[0,7];
decision_x11=[0,7];
decision_x12=[0,7];
decision_x13=[0,7];
decision_x14=[0,7];
random_y1=[0,7];
random_y2=[0,7];
random_y3=[0,7];
random_y4=[0,7];
random_y5=[0,7];
random_y6=[0,7];
constraint_x2_x1=[
0,0,6.7|
0,1,2.2|
0,2,6.3|
0,3,1.5|
0,4,5.4|
0,5,9.9|
0,6,3.9|
0,7,8.7|
1,0,4.6|
1,1,9.9|
1,2,4.2|
1,3,6|
1,4,5|
1,5,3.8|
1,6,4.3|
1,7,1.7|
2,0,5.5|
2,1,6|
2,2,7.4|
2,3,6.4|
2,4,3.8|
2,5,3.5|
2,6,2.4|
2,7,3|
3,0,4.1|
3,1,2.2|
3,2,7|
3,3,5.5|
3,4,6.4|
3,5,9.2|
3,6,1.1|
3,7,6.1|
4,0,8.6|
4,1,6|
4,2,9.5|
4,3,5.8|
4,4,2.7|
4,5,3.2|
4,6,4.6|
4,7,8.7|
5,0,5.9|
5,1,7|
5,2,6.6|
5,3,8.6|
5,4,7.4|
5,5,3.5|
5,6,0.69|
5,7,9.7|
6,0,2.9|
6,1,3.5|
6,2,0.15|
6,3,0.69|
6,4,7.3|
6,5,2.7|
6,6,3.9|
6,7,6|
7,0,2.6|
7,1,3.9|
7,2,2.1|
7,3,1.2|
7,4,1.8|
7,5,2.1|
7,6,1.8|
7,7,2|
];
constraint_x3_x2=[
0,0,4.2|
0,1,6.4|
0,2,1.2|
0,3,6|
0,4,0.21|
0,5,3.3|
0,6,5.8|
0,7,8.7|
1,0,3.6|
1,1,6.5|
1,2,0.52|
1,3,8.3|
1,4,8.7|
1,5,0.44|
1,6,8.6|
1,7,5.9|
2,0,6.3|
2,1,3.2|
2,2,2.4|
2,3,6.1|
2,4,8|
2,5,1.5|
2,6,4.8|
2,7,7.1|
3,0,7.4|
3,1,2.5|
3,2,4.2|
3,3,2.8|
3,4,3.9|
3,5,5.4|
3,6,5.4|
3,7,9.8|
4,0,2.7|
4,1,3.6|
4,2,6.8|
4,3,9.7|
4,4,5.1|
4,5,5|
4,6,8.4|
4,7,2.3|
5,0,4.9|
5,1,1.5|
5,2,9.3|
5,3,6.1|
5,4,2.1|
5,5,7.1|
5,6,8.6|
5,7,9.7|
6,0,7.4|
6,1,1.6|
6,2,8.3|
6,3,4|
6,4,8.5|
6,5,2.7|
6,6,7.7|
6,7,0.33|
7,0,3.2|
7,1,3.5|
7,2,1.2|
7,3,4.4|
7,4,0.77|
7,5,1.7|
7,6,5.7|
7,7,4.3|
];
constraint_x4_x3=[
0,0,8.5|
0,1,3.1|
0,2,4.9|
0,3,5.6|
0,4,8.5|
0,5,9.5|
0,6,5.5|
0,7,6.7|
1,0,5.2|
1,1,3.1|
1,2,2|
1,3,2.2|
1,4,4.7|
1,5,7.2|
1,6,6.6|
1,7,9.5|
2,0,3|
2,1,1.7|
2,2,0.89|
2,3,9.6|
2,4,2.4|
2,5,9.8|
2,6,1.6|
2,7,7.7|
3,0,7.3|
3,1,2.7|
3,2,4.5|
3,3,6|
3,4,9|
3,5,5.6|
3,6,3.2|
3,7,1.3|
4,0,9.9|
4,1,9.2|
4,2,6|
4,3,2.8|
4,4,8.8|
4,5,9.2|
4,6,1.8|
4,7,3.9|
5,0,3.1|
5,1,7.1|
5,2,0.85|
5,3,5.4|
5,4,5.4|
5,5,3|
5,6,9.1|
5,7,3.1|
6,0,1.1|
6,1,4.1|
6,2,6.1|
6,3,4.4|
6,4,6.1|
6,5,3.1|
6,6,4.5|
6,7,7.5|
7,0,5.5|
7,1,8|
7,2,4.9|
7,3,6.1|
7,4,2|
7,5,4.6|
7,6,3.7|
7,7,8.3|
];
constraint_x5_x1=[
0,0,4.7|
0,1,8.4|
0,2,2|
0,3,3.2|
0,4,9.1|
0,5,5.5|
0,6,2.6|
0,7,1.2|
1,0,7.1|
1,1,7.6|
1,2,2.4|
1,3,3.9|
1,4,0.24|
1,5,1.2|
1,6,1.7|
1,7,9.2|
2,0,9.7|
2,1,8.2|
2,2,9.7|
2,3,3.8|
2,4,3|
2,5,0.83|
2,6,4.1|
2,7,4.5|
3,0,4.8|
3,1,3.1|
3,2,10|
3,3,9.2|
3,4,4.5|
3,5,4.4|
3,6,5.3|
3,7,8.9|
4,0,5.3|
4,1,7|
4,2,4.6|
4,3,8|
4,4,1.4|
4,5,6.5|
4,6,3|
4,7,6.1|
5,0,9.4|
5,1,1.4|
5,2,2.8|
5,3,7.6|
5,4,1.5|
5,5,7.3|
5,6,7.8|
5,7,9.5|
6,0,7.7|
6,1,5.4|
6,2,6.4|
6,3,5.6|
6,4,2.1|
6,5,2.1|
6,6,5.2|
6,7,6.3|
7,0,4.3|
7,1,4.8|
7,2,6.1|
7,3,3.2|
7,4,1.7|
7,5,7.2|
7,6,3|
7,7,2.7|
];
constraint_x6_x2=[
0,0,2.9|
0,1,2.3|
0,2,1.6|
0,3,2|
0,4,8.8|
0,5,6.3|
0,6,2.6|
0,7,2.8|
1,0,1.8|
1,1,3|
1,2,9|
1,3,0.45|
1,4,0.78|
1,5,0.29|
1,6,8.4|
1,7,9.4|
2,0,9.9|
2,1,3.5|
2,2,9.2|
2,3,6.6|
2,4,9.8|
2,5,3.2|
2,6,3|
2,7,6.3|
3,0,5.6|
3,1,4.4|
3,2,8.4|
3,3,4.8|
3,4,2.2|
3,5,9.8|
3,6,7.1|
3,7,9.8|
4,0,9.8|
4,1,2.2|
4,2,5.9|
4,3,6|
4,4,7|
4,5,4.9|
4,6,0.35|
4,7,3.6|
5,0,7.8|
5,1,2|
5,2,2.6|
5,3,1.6|
5,4,8.5|
5,5,7.1|
5,6,5.7|
5,7,8|
6,0,8|
6,1,5.6|
6,2,1.7|
6,3,0.59|
6,4,0.91|
6,5,4|
6,6,3.8|
6,7,5.5|
7,0,8.5|
7,1,1.7|
7,2,0.47|
7,3,0.81|
7,4,2.1|
7,5,1.3|
7,6,7.4|
7,7,5.3|
];
constraint_x6_x5=[
0,0,1.3|
0,1,5.2|
0,2,4.3|
0,3,8.1|
0,4,3.7|
0,5,5.3|
0,6,7.9|
0,7,3.2|
1,0,6|
1,1,5.9|
1,2,4.7|
1,3,6.8|
1,4,0.13|
1,5,5.6|
1,6,6.2|
1,7,10|
2,0,9.3|
2,1,9.5|
2,2,4.4|
2,3,6.3|
2,4,6.8|
2,5,8.5|
2,6,0.14|
2,7,3|
3,0,1.1|
3,1,0.88|
3,2,7.9|
3,3,4.3|
3,4,8.5|
3,5,4.8|
3,6,9.7|
3,7,9.2|
4,0,6.5|
4,1,2.9|
4,2,4.8|
4,3,7.1|
4,4,9.5|
4,5,4.1|
4,6,4.5|
4,7,0.47|
5,0,4.4|
5,1,0.89|
5,2,0.013|
5,3,4|
5,4,0.21|
5,5,2.7|
5,6,5.7|
5,7,7|
6,0,8.1|
6,1,9.6|
6,2,6.2|
6,3,6.3|
6,4,0.49|
6,5,6.1|
6,6,9.5|
6,7,8.8|
7,0,7.2|
7,1,2.8|
7,2,4.1|
7,3,1.6|
7,4,4.6|
7,5,0.37|
7,6,9.1|
7,7,1.4|
];
constraint_x7_x3=[
0,0,2.3|
0,1,5.2|
0,2,3.7|
0,3,4.1|
0,4,9.6|
0,5,9.3|
0,6,0.69|
0,7,0.57|
1,0,5.8|
1,1,5.4|
1,2,0.42|
1,3,8.4|
1,4,1.9|
1,5,3.9|
1,6,6.5|
1,7,2.1|
2,0,6.4|
2,1,6.4|
2,2,7.5|
2,3,4.6|
2,4,9.6|
2,5,3.5|
2,6,1.9|
2,7,3.3|
3,0,0.078|
3,1,6.1|
3,2,6.2|
3,3,9.6|
3,4,8.8|
3,5,7.2|
3,6,7.2|
3,7,1.1|
4,0,6.3|
4,1,2.8|
4,2,5.2|
4,3,8.3|
4,4,0.66|
4,5,6.9|
4,6,6.7|
4,7,1.7|
5,0,8.5|
5,1,2.3|
5,2,3|
5,3,8.8|
5,4,3.3|
5,5,6.7|
5,6,6.9|
5,7,2.7|
6,0,9.8|
6,1,1.8|
6,2,0.65|
6,3,6.8|
6,4,9|
6,5,4.6|
6,6,5.6|
6,7,7.8|
7,0,8.7|
7,1,3.8|
7,2,3.3|
7,3,3.7|
7,4,4.4|
7,5,0.94|
7,6,6.4|
7,7,9.2|
];
constraint_x7_x6=[
0,0,7.8|
0,1,8.6|
0,2,6.6|
0,3,4.3|
0,4,6.1|
0,5,9.2|
0,6,9.2|
0,7,4.3|
1,0,9.5|
1,1,8.4|
1,2,2.8|
1,3,0.96|
1,4,4.7|
1,5,4.6|
1,6,9|
1,7,1.3|
2,0,1.9|
2,1,7.7|
2,2,0.035|
2,3,1.3|
2,4,2.4|
2,5,9.3|
2,6,3.9|
2,7,8.6|
3,0,4.3|
3,1,1.2|
3,2,9.9|
3,3,1.7|
3,4,4.3|
3,5,7|
3,6,5.2|
3,7,6.3|
4,0,6.8|
4,1,5|
4,2,4.3|
4,3,6.1|
4,4,3.6|
4,5,4.1|
4,6,7.3|
4,7,2.6|
5,0,6|
5,1,3|
5,2,6.7|
5,3,4|
5,4,3.9|
5,5,2|
5,6,0.18|
5,7,7.2|
6,0,6.1|
6,1,3.4|
6,2,2.7|
6,3,8.5|
6,4,0.41|
6,5,1.9|
6,6,5.5|
6,7,1.1|
7,0,1.1|
7,1,2|
7,2,1.9|
7,3,0.93|
7,4,5.1|
7,5,3.9|
7,6,4.9|
7,7,7.2|
];
constraint_x8_x4=[
0,0,2.8|
0,1,6.9|
0,2,8.7|
0,3,1.2|
0,4,1.9|
0,5,6.8|
0,6,1.3|
0,7,4.3|
1,0,1.8|
1,1,7.3|
1,2,1.2|
1,3,4.4|
1,4,5.5|
1,5,4.9|
1,6,0.068|
1,7,0.14|
2,0,0.18|
2,1,1.4|
2,2,4.8|
2,3,8.7|
2,4,9.7|
2,5,7.1|
2,6,1.8|
2,7,0.21|
3,0,9.4|
3,1,9.5|
3,2,8.7|
3,3,5.8|
3,4,5.6|
3,5,9.9|
3,6,3.8|
3,7,4.4|
4,0,0.14|
4,1,6|
4,2,7.2|
4,3,1.2|
4,4,8.4|
4,5,3.7|
4,6,1.1|
4,7,3.2|
5,0,1.2|
5,1,6.5|
5,2,5.2|
5,3,5.9|
5,4,6.1|
5,5,9.8|
5,6,5.5|
5,7,8|
6,0,7.1|
6,1,2.1|
6,2,5.4|
6,3,7.1|
6,4,2.3|
6,5,2.7|
6,6,5|
6,7,2.5|
7,0,2.2|
7,1,9.3|
7,2,1.2|
7,3,6.5|
7,4,2.2|
7,5,5.9|
7,6,8|
7,7,1.2|
];
constraint_x8_x7=[
0,0,9.8|
0,1,6.3|
0,2,8.6|
0,3,7.4|
0,4,3.4|
0,5,7.4|
0,6,3.8|
0,7,9.1|
1,0,7.2|
1,1,8|
1,2,5|
1,3,8|
1,4,9.6|
1,5,8.4|
1,6,5.3|
1,7,1.4|
2,0,9.4|
2,1,9.5|
2,2,7.2|
2,3,2|
2,4,0.01|
2,5,2.3|
2,6,9.3|
2,7,9.6|
3,0,0.013|
3,1,0.97|
3,2,3.5|
3,3,1.9|
3,4,6.8|
3,5,7.2|
3,6,1.9|
3,7,4.6|
4,0,7.7|
4,1,8.6|
4,2,9.2|
4,3,5.6|
4,4,8.8|
4,5,8.9|
4,6,1.4|
4,7,0.9|
5,0,9|
5,1,9.2|
5,2,0.76|
5,3,9.4|
5,4,3|
5,5,1.1|
5,6,8.6|
5,7,6.8|
6,0,6.1|
6,1,1.4|
6,2,5.2|
6,3,7.3|
6,4,9.3|
6,5,6.7|
6,6,9.8|
6,7,2.3|
7,0,0.0012|
7,1,8.9|
7,2,3.9|
7,3,9.5|
7,4,1.5|
7,5,8.1|
7,6,3.3|
7,7,0.76|
];
constraint_x9_x5=[
0,0,8.2|
0,1,9.9|
0,2,10|
0,3,8.5|
0,4,1.1|
0,5,7.3|
0,6,6.9|
0,7,10|
1,0,1.4|
1,1,1.2|
1,2,4.5|
1,3,8.3|
1,4,2|
1,5,0.65|
1,6,9.7|
1,7,5|
2,0,7.9|
2,1,5.6|
2,2,4.6|
2,3,1.3|
2,4,0.5|
2,5,0.76|
2,6,9.1|
2,7,0.49|
3,0,3.8|
3,1,6.7|
3,2,2.8|
3,3,0.25|
3,4,3.1|
3,5,4.7|
3,6,9.9|
3,7,8.4|
4,0,2.7|
4,1,9.2|
4,2,7.9|
4,3,0.39|
4,4,8.5|
4,5,4.1|
4,6,7.3|
4,7,1.7|
5,0,4.5|
5,1,5.1|
5,2,0.94|
5,3,8.8|
5,4,2.9|
5,5,2.4|
5,6,7.9|
5,7,8.6|
6,0,2.3|
6,1,8.1|
6,2,0.31|
6,3,6.6|
6,4,6.1|
6,5,0.24|
6,6,6.3|
6,7,6.5|
7,0,8.6|
7,1,6.4|
7,2,0.7|
7,3,5.2|
7,4,2.3|
7,5,6.2|
7,6,1|
7,7,6.8|
];
constraint_x10_x6=[
0,0,0.6|
0,1,6.4|
0,2,1.9|
0,3,5|
0,4,4.6|
0,5,1.8|
0,6,9.7|
0,7,2.6|
1,0,7|
1,1,2|
1,2,2.9|
1,3,4.7|
1,4,4.4|
1,5,1.6|
1,6,3.5|
1,7,9.4|
2,0,3.7|
2,1,1.6|
2,2,6.4|
2,3,0.2|
2,4,5.3|
2,5,4.4|
2,6,8|
2,7,9.2|
3,0,8.3|
3,1,5.6|
3,2,0.7|
3,3,4.7|
3,4,5.1|
3,5,7.9|
3,6,8.1|
3,7,1.5|
4,0,5.6|
4,1,6.7|
4,2,4.7|
4,3,6.1|
4,4,0.037|
4,5,6.2|
4,6,1.5|
4,7,5.7|
5,0,4.2|
5,1,9.7|
5,2,2.2|
5,3,9.3|
5,4,0.78|
5,5,3.6|
5,6,3.9|
5,7,9.2|
6,0,1|
6,1,8.8|
6,2,8.5|
6,3,3.7|
6,4,9.2|
6,5,7.7|
6,6,3.9|
6,7,1.2|
7,0,8|
7,1,4.8|
7,2,2.3|
7,3,5.6|
7,4,9.8|
7,5,5.6|
7,6,3.8|
7,7,3.1|
];
constraint_x10_x9=[
0,0,6.7|
0,1,1.4|
0,2,4.4|
0,3,2.7|
0,4,0.21|
0,5,2.7|
0,6,8.6|
0,7,5.2|
1,0,0.28|
1,1,7.4|
1,2,6.2|
1,3,9.5|
1,4,1.8|
1,5,1.4|
1,6,5.7|
1,7,4.6|
2,0,8.1|
2,1,0.21|
2,2,0.31|
2,3,6.5|
2,4,3.7|
2,5,8.6|
2,6,2.7|
2,7,9.9|
3,0,7.6|
3,1,8.2|
3,2,6.7|
3,3,0.37|
3,4,0.53|
3,5,1.9|
3,6,3.1|
3,7,8.7|
4,0,1.7|
4,1,0.95|
4,2,0.58|
4,3,2.9|
4,4,5.1|
4,5,5|
4,6,0.27|
4,7,0.12|
5,0,9.9|
5,1,5.1|
5,2,7.7|
5,3,3.1|
5,4,3.8|
5,5,6.2|
5,6,5.2|
5,7,7|
6,0,0.38|
6,1,0.43|
6,2,9.6|
6,3,3.7|
6,4,3.5|
6,5,4.9|
6,6,8.1|
6,7,5.4|
7,0,1.8|
7,1,6.8|
7,2,4.1|
7,3,5.1|
7,4,4.6|
7,5,7.1|
7,6,1.8|
7,7,7.6|
];
constraint_x11_x7=[
0,0,1.7|
0,1,7.7|
0,2,4.3|
0,3,4.3|
0,4,9.6|
0,5,5.9|
0,6,2.9|
0,7,8.8|
1,0,3.2|
1,1,5|
1,2,7.2|
1,3,3.4|
1,4,9|
1,5,6|
1,6,2.6|
1,7,1.9|
2,0,4|
2,1,1.3|
2,2,0.56|
2,3,0.72|
2,4,6.9|
2,5,2.5|
2,6,3|
2,7,4.2|
3,0,0.2|
3,1,8.9|
3,2,7.5|
3,3,3.8|
3,4,5.6|
3,5,6.9|
3,6,7.1|
3,7,8.6|
4,0,8.6|
4,1,9.2|
4,2,3.5|
4,3,0.87|
4,4,7.9|
4,5,2.7|
4,6,2|
4,7,1.2|
5,0,0.6|
5,1,5.1|
5,2,3.1|
5,3,9.7|
5,4,2.2|
5,5,3.4|
5,6,7.1|
5,7,6.2|
6,0,3.1|
6,1,2.7|
6,2,5.2|
6,3,4.8|
6,4,3.7|
6,5,2|
6,6,0.19|
6,7,8.2|
7,0,5|
7,1,8.9|
7,2,4.5|
7,3,5.2|
7,4,7.7|
7,5,8.6|
7,6,4.3|
7,7,6.7|
];
constraint_x11_x10=[
0,0,6.6|
0,1,1.2|
0,2,2.7|
0,3,4.4|
0,4,2.8|
0,5,5.2|
0,6,1.5|
0,7,0.64|
1,0,6.1|
1,1,3.3|
1,2,0.8|
1,3,1.1|
1,4,7.8|
1,5,6.9|
1,6,1.6|
1,7,2.9|
2,0,2.6|
2,1,0.23|
2,2,1.5|
2,3,6.1|
2,4,4|
2,5,3.6|
2,6,8.5|
2,7,1.4|
3,0,8|
3,1,6|
3,2,4.1|
3,3,4.9|
3,4,7|
3,5,8.8|
3,6,7.3|
3,7,3.6|
4,0,3.1|
4,1,4.6|
4,2,6.5|
4,3,9.4|
4,4,5.6|
4,5,7.2|
4,6,6.7|
4,7,7.1|
5,0,5.3|
5,1,1.1|
5,2,0.9|
5,3,6.2|
5,4,3.3|
5,5,9.7|
5,6,7.3|
5,7,8.3|
6,0,4.8|
6,1,4.4|
6,2,4.1|
6,3,5.5|
6,4,6.8|
6,5,5.1|
6,6,3|
6,7,5|
7,0,9.9|
7,1,5.1|
7,2,6.9|
7,3,1.1|
7,4,3.2|
7,5,5.9|
7,6,3|
7,7,9.7|
];
constraint_x12_x8=[
0,0,3.4|
0,1,8.5|
0,2,1.2|
0,3,4.5|
0,4,5.2|
0,5,6.6|
0,6,6.4|
0,7,0.44|
1,0,5.7|
1,1,8.1|
1,2,2.1|
1,3,6.1|
1,4,6.3|
1,5,9.6|
1,6,1.8|
1,7,5.3|
2,0,3.1|
2,1,9.3|
2,2,3.2|
2,3,5.4|
2,4,2.1|
2,5,3.6|
2,6,7.3|
2,7,6.2|
3,0,0.91|
3,1,9.4|
3,2,3.1|
3,3,7|
3,4,1.1|
3,5,2.5|
3,6,2.4|
3,7,3.9|
4,0,9.7|
4,1,8.7|
4,2,4.6|
4,3,3.5|
4,4,6.8|
4,5,4.2|
4,6,1.4|
4,7,9.9|
5,0,8.7|
5,1,3.1|
5,2,3.6|
5,3,0.24|
5,4,4.8|
5,5,8.4|
5,6,7.6|
5,7,8.7|
6,0,4.1|
6,1,0.62|
6,2,6.1|
6,3,9.7|
6,4,8.1|
6,5,7.5|
6,6,2.3|
6,7,4.7|
7,0,8.9|
7,1,5.1|
7,2,5.5|
7,3,2.9|
7,4,0.88|
7,5,1.4|
7,6,0.024|
7,7,5.5|
];
constraint_x12_x11=[
0,0,1.5|
0,1,5.3|
0,2,0.39|
0,3,2.6|
0,4,0.28|
0,5,8.5|
0,6,9.5|
0,7,1.3|
1,0,5.9|
1,1,0.16|
1,2,6.3|
1,3,6.8|
1,4,9.2|
1,5,5.7|
1,6,8.1|
1,7,7.1|
2,0,1.7|
2,1,9.1|
2,2,2.4|
2,3,6.2|
2,4,9.8|
2,5,3.9|
2,6,6.3|
2,7,1.6|
3,0,5.1|
3,1,6|
3,2,6.8|
3,3,8.8|
3,4,6.9|
3,5,0.15|
3,6,8.1|
3,7,3.6|
4,0,8|
4,1,5.6|
4,2,2.1|
4,3,6.9|
4,4,0.08|
4,5,2.4|
4,6,7.8|
4,7,7.2|
5,0,6.4|
5,1,2.2|
5,2,8.8|
5,3,0.97|
5,4,6|
5,5,6.7|
5,6,2.3|
5,7,3.6|
6,0,7.1|
6,1,5.2|
6,2,2.4|
6,3,6.3|
6,4,6.7|
6,5,9|
6,6,6.6|
6,7,7.2|
7,0,0.086|
7,1,7.6|
7,2,3.9|
7,3,8.8|
7,4,7.7|
7,5,6.4|
7,6,2.2|
7,7,2.9|
];
constraint_x13_x9=[
0,0,6.6|
0,1,3.4|
0,2,5.5|
0,3,7.1|
0,4,7.2|
0,5,9.8|
0,6,2.1|
0,7,3.2|
1,0,7.9|
1,1,0.19|
1,2,8.9|
1,3,0.22|
1,4,4.2|
1,5,2.6|
1,6,1.2|
1,7,3.9|
2,0,3|
2,1,3.1|
2,2,4|
2,3,1.5|
2,4,0.53|
2,5,3.4|
2,6,4.3|
2,7,1|
3,0,2.7|
3,1,6.7|
3,2,6|
3,3,6.7|
3,4,1.6|
3,5,9.6|
3,6,1.7|
3,7,3.1|
4,0,8.6|
4,1,7.8|
4,2,6.2|
4,3,0.45|
4,4,3|
4,5,1.4|
4,6,3.3|
4,7,3.1|
5,0,5.5|
5,1,8.1|
5,2,8.7|
5,3,2.4|
5,4,3|
5,5,7.6|
5,6,1.6|
5,7,0.71|
6,0,2.8|
6,1,3.8|
6,2,1.1|
6,3,5.2|
6,4,0.9|
6,5,9|
6,6,10|
6,7,6.3|
7,0,1.2|
7,1,8|
7,2,9.7|
7,3,0.89|
7,4,7.7|
7,5,1.2|
7,6,9.3|
7,7,6.5|
];
constraint_x14_x10=[
0,0,7|
0,1,5.9|
0,2,7.1|
0,3,7.4|
0,4,2.9|
0,5,3.9|
0,6,8.4|
0,7,7.1|
1,0,9.5|
1,1,6.7|
1,2,7.7|
1,3,1.3|
1,4,6.9|
1,5,8.1|
1,6,4.8|
1,7,3|
2,0,9.7|
2,1,7.3|
2,2,0.26|
2,3,4.7|
2,4,5.8|
2,5,7.5|
2,6,5.4|
2,7,1.9|
3,0,5.2|
3,1,7.6|
3,2,7.4|
3,3,5.6|
3,4,0.96|
3,5,9.2|
3,6,7.9|
3,7,0.52|
4,0,0.32|
4,1,2.7|
4,2,3.6|
4,3,2.1|
4,4,2|
4,5,9.5|
4,6,8.7|
4,7,3.3|
5,0,7.6|
5,1,4|
5,2,1.6|
5,3,9.7|
5,4,1|
5,5,2.1|
5,6,7.4|
5,7,6.8|
6,0,5.3|
6,1,0.95|
6,2,5.8|
6,3,0.94|
6,4,9.7|
6,5,1.8|
6,6,5.9|
6,7,2.7|
7,0,4.4|
7,1,0.16|
7,2,6.7|
7,3,2|
7,4,2.7|
7,5,6.4|
7,6,1.8|
7,7,1.3|
];
constraint_x1_y1=[
0,0,8.6|
0,1,4.5|
0,2,4.1|
0,3,5.9|
0,4,5.7|
0,5,3.6|
0,6,9.1|
0,7,3.3|
1,0,1|
1,1,8|
1,2,8.7|
1,3,4.5|
1,4,4.6|
1,5,8.9|
1,6,8.7|
1,7,2.4|
2,0,9.9|
2,1,5.6|
2,2,9.5|
2,3,3.5|
2,4,4.6|
2,5,3.9|
2,6,8|
2,7,1.9|
3,0,2.5|
3,1,9|
3,2,3.1|
3,3,6.8|
3,4,3.7|
3,5,4.4|
3,6,10|
3,7,0.069|
4,0,4.2|
4,1,1.3|
4,2,5.2|
4,3,7.2|
4,4,8.5|
4,5,2|
4,6,5.2|
4,7,7|
5,0,2.2|
5,1,5.2|
5,2,1.1|
5,3,5|
5,4,5.6|
5,5,7.2|
5,6,0.68|
5,7,8.5|
6,0,8|
6,1,0.96|
6,2,3.6|
6,3,1.1|
6,4,4.3|
6,5,2.4|
6,6,3.4|
6,7,7.1|
7,0,4.6|
7,1,3.1|
7,2,7|
7,3,3.9|
7,4,9.3|
7,5,6.1|
7,6,0.047|
7,7,9.2|
];
constraint_x2_y2=[
0,0,8.6|
0,1,3.6|
0,2,1.3|
0,3,4.2|
0,4,9.6|
0,5,0.55|
0,6,4.3|
0,7,6.6|
1,0,9.1|
1,1,1.7|
1,2,1.1|
1,3,7.1|
1,4,7.3|
1,5,3.6|
1,6,3.8|
1,7,0.98|
2,0,5.4|
2,1,3.5|
2,2,8.9|
2,3,2.3|
2,4,7.8|
2,5,2.2|
2,6,2.4|
2,7,6.1|
3,0,1.7|
3,1,3.9|
3,2,9|
3,3,4.8|
3,4,3.5|
3,5,9.6|
3,6,5.6|
3,7,7.8|
4,0,6.8|
4,1,9.9|
4,2,3.8|
4,3,6.9|
4,4,6.6|
4,5,5.7|
4,6,8.2|
4,7,3.1|
5,0,3.8|
5,1,1.6|
5,2,1.9|
5,3,4.1|
5,4,3.8|
5,5,8.9|
5,6,4.5|
5,7,5|
6,0,6.7|
6,1,9.5|
6,2,0.28|
6,3,3.3|
6,4,1|
6,5,0.46|
6,6,7.3|
6,7,1.3|
7,0,1.3|
7,1,9|
7,2,3.7|
7,3,3.2|
7,4,0.0058|
7,5,3.9|
7,6,0.84|
7,7,1.6|
];
constraint_x3_y3=[
0,0,9.2|
0,1,5.7|
0,2,7.7|
0,3,3.4|
0,4,0.32|
0,5,7.6|
0,6,2.9|
0,7,4.5|
1,0,0.35|
1,1,7.2|
1,2,3.1|
1,3,6.5|
1,4,4.3|
1,5,9.3|
1,6,1.6|
1,7,4.2|
2,0,7.7|
2,1,8|
2,2,6.3|
2,3,4.2|
2,4,0.98|
2,5,9.8|
2,6,5.1|
2,7,7.5|
3,0,1.2|
3,1,8.4|
3,2,8.2|
3,3,4.2|
3,4,2|
3,5,3.3|
3,6,8.2|
3,7,3.5|
4,0,9.8|
4,1,1.7|
4,2,0.95|
4,3,7.6|
4,4,7.8|
4,5,1.4|
4,6,6.5|
4,7,2.6|
5,0,3.9|
5,1,5.4|
5,2,9.4|
5,3,0.93|
5,4,4|
5,5,5.4|
5,6,8.2|
5,7,1.5|
6,0,9.3|
6,1,9|
6,2,8|
6,3,0.44|
6,4,4.6|
6,5,3.6|
6,6,8.5|
6,7,0.16|
7,0,1.1|
7,1,2.6|
7,2,0.84|
7,3,2.8|
7,4,5.6|
7,5,5.2|
7,6,5.5|
7,7,2.6|
];
constraint_x4_y4=[
0,0,5.2|
0,1,9.7|
0,2,9.1|
0,3,6.8|
0,4,2|
0,5,6|
0,6,7.7|
0,7,5.1|
1,0,6.1|
1,1,7.1|
1,2,6.3|
1,3,0.8|
1,4,3.3|
1,5,1.2|
1,6,8.4|
1,7,7.7|
2,0,6.7|
2,1,3.9|
2,2,8.7|
2,3,2.1|
2,4,8.2|
2,5,4.1|
2,6,9.1|
2,7,0.15|
3,0,4.1|
3,1,0.71|
3,2,8.6|
3,3,1.2|
3,4,1.9|
3,5,0.32|
3,6,7.7|
3,7,2|
4,0,1|
4,1,4.9|
4,2,9.6|
4,3,5.5|
4,4,8.6|
4,5,8.8|
4,6,1.9|
4,7,0.83|
5,0,6.3|
5,1,4.5|
5,2,3.7|
5,3,2.4|
5,4,7|
5,5,9.2|
5,6,7.8|
5,7,8.3|
6,0,4.5|
6,1,2.9|
6,2,9.8|
6,3,5.4|
6,4,4.8|
6,5,0.55|
6,6,0.4|
6,7,9.1|
7,0,0.6|
7,1,6.9|
7,2,7.6|
7,3,6.3|
7,4,1.6|
7,5,9.2|
7,6,7.3|
7,7,4.7|
];
constraint_x5_y5=[
0,0,8.5|
0,1,4.8|
0,2,7.6|
0,3,8.7|
0,4,0.69|
0,5,9.2|
0,6,9.4|
0,7,6.1|
1,0,8.3|
1,1,6.3|
1,2,0.2|
1,3,3.8|
1,4,8.6|
1,5,7.1|
1,6,5.8|
1,7,1|
2,0,8.6|
2,1,0.52|
2,2,8.6|
2,3,1.8|
2,4,2.2|
2,5,2.4|
2,6,3.3|
2,7,9.2|
3,0,0.75|
3,1,2.8|
3,2,7.2|
3,3,9.1|
3,4,5.1|
3,5,1.2|
3,6,6.1|
3,7,4.6|
4,0,0.15|
4,1,3.4|
4,2,4.3|
4,3,2.9|
4,4,9.2|
4,5,6|
4,6,9|
4,7,6.5|
5,0,5.3|
5,1,5.7|
5,2,5.9|
5,3,6.4|
5,4,0.95|
5,5,4|
5,6,9.5|
5,7,9.3|
6,0,5.5|
6,1,3.9|
6,2,1.9|
6,3,0.73|
6,4,5.2|
6,5,4.8|
6,6,0.52|
6,7,1.1|
7,0,9.4|
7,1,5.7|
7,2,8.8|
7,3,0.39|
7,4,5.9|
7,5,3.9|
7,6,7.4|
7,7,7.2|
];
constraint_x6_y6=[
0,0,3.8|
0,1,8.4|
0,2,4.2|
0,3,2.1|
0,4,2.4|
0,5,7.1|
0,6,3.5|
0,7,0.68|
1,0,6|
1,1,1.4|
1,2,5.5|
1,3,0.48|
1,4,9|
1,5,5.5|
1,6,5|
1,7,4.1|
2,0,9.1|
2,1,2.6|
2,2,2.2|
2,3,1.7|
2,4,7.2|
2,5,0.11|
2,6,7|
2,7,0.32|
3,0,3.7|
3,1,2.8|
3,2,6.3|
3,3,4|
3,4,7|
3,5,4.5|
3,6,6.9|
3,7,5.9|
4,0,3.4|
4,1,0.33|
4,2,2.9|
4,3,2.1|
4,4,6.1|
4,5,3.4|
4,6,2.9|
4,7,1.5|
5,0,10|
5,1,4.1|
5,2,5.9|
5,3,8.6|
5,4,4.9|
5,5,0.29|
5,6,4|
5,7,2.5|
6,0,4.5|
6,1,3.9|
6,2,2.7|
6,3,6.7|
6,4,9.4|
6,5,5.1|
6,6,3.2|
6,7,7.5|
7,0,7.3|
7,1,2.9|
7,2,1.5|
7,3,8.5|
7,4,8.5|
7,5,5.3|
7,6,0.12|
7,7,0.75|
];
initial_distribution_y1=[0.068,0.15,0.11,0.17,0.16,0.12,0.15,0.063];
initial_distribution_y2=[0.028,0.027,0.2,0.099,0.11,0.22,0.089,0.23];
initial_distribution_y3=[0.0072,0.2,0.16,0.16,0.18,0.024,0.14,0.12];
initial_distribution_y4=[0.047,0.23,0.25,0.15,0.0042,0.054,0.21,0.048];
initial_distribution_y5=[0.13,0.016,0.16,0.17,0.086,0.1,0.22,0.12];
initial_distribution_y6=[0.24,0.042,0.24,0.015,0.24,0.083,0.047,0.088];
transition_y1=[
0.14,0.046,0.19,0.037,0.2,0.034,0.19,0.16|
0.073,0.035,0.18,0.24,0.18,0.01,0.13,0.15|
0.19,0.04,0.19,0.2,0.18,0.1,0.024,0.067|
0.2,0.0066,0.14,0.16,0.069,0.21,0.15,0.061|
0.11,0.22,0.15,0.068,0.24,0.19,0.0056,0.028|
0.16,0.15,0.049,0.1,0.021,0.029,0.18,0.31|
0.17,0.23,0.12,0.16,0.076,0.037,0.06,0.13|
0.17,0.085,0.25,0.067,0.13,0.15,0.022,0.12|
];
transition_y2=[
0.013,0.056,0.16,0.15,0.17,0.14,0.19,0.12|
0.043,0.2,0.089,0.15,0.13,0.044,0.16,0.19|
0.21,0.024,0.02,0.2,0.13,0.12,0.13,0.16|
0.18,0.12,0.042,0.056,0.24,0.12,0.12,0.11|
0.14,0.24,0.2,0.0041,0.082,0.11,0.17,0.063|
0.13,0.079,0.14,0.16,0.095,0.052,0.1,0.24|
0.11,0.021,0.21,0.11,0.046,0.17,0.17,0.17|
0.18,0.097,0.19,0.17,0.18,0.019,0.12,0.042|
];
transition_y3=[
0.14,0.16,0.15,0.052,0.081,0.075,0.17,0.18|
0.004,0.017,0.021,0.26,0.15,0.14,0.24,0.17|
0.18,0.16,0.23,0.029,0.1,0.2,0.048,0.067|
0.13,0.2,0.16,0.003,0.22,0.058,0.023,0.21|
0.24,0.05,0.063,0.0075,0.15,0.13,0.21,0.15|
0.26,0.012,0.048,0.19,0.026,0.28,0.072,0.12|
0.18,0.057,0.066,0.18,0.12,0.15,0.079,0.16|
0.14,0.061,0.047,0.16,0.059,0.23,0.089,0.22|
];
transition_y4=[
0.19,0.17,0.018,0.19,0.076,0.0074,0.19,0.16|
0.11,0.24,0.17,0.041,0.18,0.18,0.036,0.048|
0.14,0.16,0.17,0.073,0.13,0.064,0.1,0.16|
0.059,0.03,0.043,0.17,0.17,0.19,0.17,0.17|
0.19,0.041,0.16,0.12,0.12,0.2,0.036,0.14|
0.12,0.16,0.11,0.0051,0.2,0.1,0.11,0.2|
0.2,0.012,0.2,0.17,0.12,0.17,0.026,0.12|
0.17,0.06,0.16,0.22,0.16,0.0099,0.12,0.096|
];
transition_y5=[
0.031,0.047,0.19,0.22,0.12,0.091,0.14,0.15|
0.025,0.21,0.12,0.17,0.1,0.16,0.039,0.18|
0.043,0.21,0.075,0.038,0.1,0.16,0.21,0.17|
0.14,0.12,0.2,0.028,0.096,0.22,0.2,0.0032|
0.038,0.038,0.16,0.23,0.17,0.088,0.023,0.26|
0.035,0.13,0.077,0.061,0.26,0.083,0.19,0.16|
0.25,0.047,0.2,0.22,0.014,0.0078,0.0074,0.25|
0.034,0.065,0.093,0.21,0.12,0.19,0.14,0.15|
];
transition_y6=[
0.051,0.19,0.014,0.19,0.18,0.15,0.084,0.14|
0.12,0.12,0.2,0.027,0.099,0.11,0.25,0.068|
0.22,0.19,0.04,0.11,0.022,0.17,0.047,0.2|
0.11,0.2,0.12,0.21,0.018,0.13,0.098,0.11|
0.096,0.096,0.16,0.02,0.091,0.23,0.12,0.18|
0.2,0.18,0.09,0.13,0.18,0.041,0.0032,0.17|
0.082,0.2,0.062,0.089,0.11,0.059,0.16,0.24|
0.18,0.14,0.015,0.16,0.21,0.077,0.044,0.18|
];
